
Gurobi 11.0.0 (linux64) logging started Fri Apr 12 22:44:15 2024

Set parameter LogFile to value "/lustre1/scratch/348/vsc34888/JointResearch/05.Models/06.Benchmarking/L.Cont_Investments_per_hour/9n_ByStages_nc80/openStarNet_9n_ByStages_nc80.log"
Set parameter Method to value 2
Set parameter MIPFocus to value 1
Set parameter Presolve to value 2
Set parameter RINS to value 100
Set parameter MIPGap to value 0.01
Set parameter Threads to value 36
Set parameter TimeLimit to value 259200
Set parameter IterationLimit to value 760000000
Gurobi Optimizer version 11.0.0 build v11.0.0rc2 (linux64 - "Rocky Linux 8.8 (Green Obsidian)")

CPU model: Intel(R) Xeon(R) Gold 6140 CPU @ 2.30GHz, instruction set [SSE2|AVX|AVX2|AVX512]
Thread count: 36 physical cores, 36 logical processors, using up to 36 threads

Optimize a model with 20963 rows, 11016 columns and 63036 nonzeros
Model fingerprint: 0xaa35cc6a
Variable types: 10980 continuous, 36 integer (36 binary)
Coefficient statistics:
  Matrix range     [8e-04, 2e+03]
  Objective range  [1e+00, 1e+00]
  Bounds range     [4e-04, 2e+00]
  RHS range        [4e-04, 1e+00]
Presolve removed 7123 rows and 3764 columns
Presolve time: 0.07s
Presolved: 13840 rows, 7252 columns, 47216 nonzeros
Variable types: 7216 continuous, 36 integer (36 binary)
Found heuristic solution: objective 883.2969208
Root relaxation presolved: 13840 rows, 7252 columns, 47216 nonzeros

Root barrier log...

Ordering time: 0.01s

Barrier statistics:
 Dense cols : 36
 AA' NZ     : 1.639e+05
 Factor NZ  : 3.242e+05 (roughly 11 MB of memory)
 Factor Ops : 1.080e+07 (less than 1 second per iteration)
 Threads    : 36

                  Objective                Residual
Iter       Primal          Dual         Primal    Dual     Compl     Time
   0   4.89006657e+05 -5.14337844e+07  7.27e+00 3.08e+02  7.47e+03     0s
   1   8.25716722e+04 -2.10305656e+07  1.04e+00 5.77e-09  1.16e+03     0s
   2   1.70915066e+04 -3.73912915e+06  2.64e-02 4.22e-10  1.43e+02     0s
   3   8.14172409e+03 -6.81903403e+04  6.75e-14 1.60e-11  2.83e+00     0s
   4   1.75084410e+03 -1.79939161e+04  8.35e-14 3.52e-12  7.32e-01     0s
   5   8.19455515e+02 -6.64393681e+03  5.60e-14 1.41e-12  2.77e-01     0s
   6   6.75556922e+02 -2.23961092e+03  4.44e-14 9.09e-13  1.08e-01     0s
   7   4.42831028e+02 -1.12870661e+03  1.23e-13 9.09e-13  5.82e-02     0s
   8   2.80903226e+02 -3.00319659e+02  1.33e-13 9.09e-13  2.15e-02     1s
   9   1.32549256e+02  1.67621510e+01  2.05e-13 9.09e-13  4.29e-03     1s
  10   1.08654479e+02  7.14514291e+01  3.05e-13 9.09e-13  1.38e-03     1s
  11   1.01531692e+02  7.88259177e+01  3.98e-13 9.09e-13  8.41e-04     1s
  12   9.86619803e+01  8.45387650e+01  1.20e-12 9.09e-13  5.23e-04     1s
  13   9.62782298e+01  8.64889539e+01  4.48e-12 9.09e-13  3.63e-04     1s
  14   9.51594222e+01  8.92652105e+01  6.05e-12 9.09e-13  2.18e-04     1s
  15   9.44207817e+01  9.05072949e+01  8.10e-12 9.09e-13  1.45e-04     1s
  16   9.39977044e+01  9.33617347e+01  1.49e-11 9.09e-13  2.36e-05     1s
  17   9.39009869e+01  9.37671927e+01  6.60e-10 9.09e-13  4.96e-06     1s
  18   9.38760350e+01  9.38696792e+01  3.54e-10 1.36e-12  2.36e-07     1s
  19   9.38727876e+01  9.38722012e+01  7.09e-09 9.09e-13  2.17e-08     1s
  20   9.38727441e+01  9.38727385e+01  1.32e-09 1.82e-12  2.11e-10     1s
  21   9.38727428e+01  9.38727428e+01  3.31e-09 9.09e-13  6.48e-15     1s

Barrier solved model in 21 iterations and 0.83 seconds (0.28 work units)
Optimal objective 9.38727428e+01


Root relaxation: objective 9.387274e+01, 949 iterations, 0.85 seconds (0.18 work units)

    Nodes    |    Current Node    |     Objective Bounds      |     Work
 Expl Unexpl |  Obj  Depth IntInf | Incumbent    BestBd   Gap | It/Node Time

     0     0   93.87274    0    4  883.29692   93.87274  89.4%     -    1s
H    0     0                     789.0792477   93.87274  88.1%     -    1s
     0     0  101.31182    0    2  789.07925  101.31182  87.2%     -    1s
H    0     0                     102.8200268  101.31182  1.47%     -    1s
H    0     0                     102.1427113  101.31182  0.81%     -    2s

Cutting planes:
  Gomory: 2
  MIR: 110
  RLT: 1
  Relax-and-lift: 16

Explored 1 nodes (1109 simplex iterations) in 2.07 seconds (0.49 work units)
Thread count was 36 (of 36 available processors)

Solution count 4: 102.143 102.82 789.079 883.297 

Optimal solution found (tolerance 1.00e-02)
Best objective 1.021427113273e+02, best bound 1.013118153037e+02, gap 0.8135%

Gurobi 11.0.0 (linux64) logging started Fri Apr 12 22:44:20 2024

Set parameter LogFile to value "/lustre1/scratch/348/vsc34888/JointResearch/05.Models/06.Benchmarking/L.Cont_Investments_per_hour/9n_ByStages_nc80/openStarNet_9n_ByStages_nc80.log"
Set parameter Method to value 2
Set parameter MIPFocus to value 1
Set parameter Presolve to value 2
Set parameter RINS to value 100
Set parameter MIPGap to value 0.01
Set parameter Threads to value 36
Set parameter TimeLimit to value 259200
Set parameter IterationLimit to value 760000000
Gurobi Optimizer version 11.0.0 build v11.0.0rc2 (linux64 - "Rocky Linux 8.8 (Green Obsidian)")

CPU model: Intel(R) Xeon(R) Gold 6140 CPU @ 2.30GHz, instruction set [SSE2|AVX|AVX2|AVX512]
Thread count: 36 physical cores, 36 logical processors, using up to 36 threads

Optimize a model with 20963 rows, 10980 columns and 51480 nonzeros
Model fingerprint: 0x3c680ead
Coefficient statistics:
  Matrix range     [8e-04, 2e+03]
  Objective range  [1e+00, 1e+00]
  Bounds range     [4e-04, 2e+00]
  RHS range        [4e-04, 2e+01]
Presolve removed 19161 rows and 7332 columns
Presolve time: 0.02s
Presolved: 1802 rows, 3648 columns, 7812 nonzeros

Ordering time: 0.00s

Barrier statistics:
 AA' NZ     : 3.538e+03
 Factor NZ  : 1.621e+04 (roughly 2 MB of memory)
 Factor Ops : 1.878e+05 (less than 1 second per iteration)
 Threads    : 1

                  Objective                Residual
Iter       Primal          Dual         Primal    Dual     Compl     Time
   0   5.82359453e+05 -2.43298214e+07  6.35e+00 1.22e+03  1.80e+04     0s
   1   6.86213860e+04 -1.45844228e+07  5.45e-01 1.97e-11  2.65e+03     0s
   2   2.67868419e+04 -3.36732552e+06  9.76e-02 1.54e-11  4.76e+02     0s
   3   1.34427845e+04 -1.59210249e+05  3.21e-03 1.49e-11  2.10e+01     0s
   4   3.02655297e+03 -1.44661446e+04  1.10e-05 7.50e-12  2.10e+00     0s
   5   1.03639967e+03 -4.33123646e+03  6.30e-07 2.96e-12  6.43e-01     0s
   6   5.86323357e+02 -1.01065063e+03  1.63e-07 1.82e-12  1.91e-01     0s
   7   3.04593218e+02 -3.60003542e+02  4.85e-08 3.64e-12  7.96e-02     0s
   8   2.09319876e+02 -1.04929038e+02  2.09e-08 3.64e-12  3.77e-02     0s
   9   1.47100738e+02  4.59768030e+01  7.22e-09 3.64e-12  1.21e-02     0s
  10   1.15219418e+02  8.66015427e+01  1.66e-09 3.64e-12  3.43e-03     0s
  11   1.07041544e+02  9.59674891e+01  5.60e-10 3.64e-12  1.33e-03     0s
  12   1.04541424e+02  9.94682125e+01  2.59e-10 1.82e-12  6.08e-04     0s
  13   1.03245936e+02  1.01088234e+02  1.14e-10 3.64e-12  2.59e-04     0s
  14   1.02641711e+02  1.01604372e+02  4.99e-11 3.64e-12  1.24e-04     0s
  15   1.02302370e+02  1.02050098e+02  1.47e-11 3.64e-12  3.02e-05     0s
  16   1.02174906e+02  1.02120692e+02  2.76e-12 1.82e-12  6.50e-06     0s
  17   1.02145076e+02  1.02142073e+02  2.68e-13 3.64e-12  3.60e-07     0s
  18   1.02142912e+02  1.02142614e+02  7.19e-11 1.82e-12  3.56e-08     0s
  19   1.02142712e+02  1.02142709e+02  1.10e-11 3.64e-12  3.15e-10     0s
  20   1.02142711e+02  1.02142711e+02  6.01e-10 3.64e-12  9.16e-13     0s

Barrier solved model in 20 iterations and 0.05 seconds (0.04 work units)
Optimal objective 1.02142711e+02

Crossover log...

     897 DPushes remaining with DInf 0.0000000e+00                 0s
       0 DPushes remaining with DInf 0.0000000e+00                 0s

       6 PPushes remaining with PInf 0.0000000e+00                 0s
       0 PPushes remaining with PInf 0.0000000e+00                 0s

  Push phase complete: Pinf 0.0000000e+00, Dinf 6.1026054e-14      0s

Iteration    Objective       Primal Inf.    Dual Inf.      Time
      79    1.0214271e+02   0.000000e+00   0.000000e+00      0s

Solved in 79 iterations and 0.07 seconds (0.05 work units)
Optimal objective  1.021427113e+02
